\* Slave solver *\
Minimize
OBJ: - 0.33333333 S0 - 0.5 S1 - 0.25 S2 - S3 - 0.41666667 S4
Subject To
_C1: 6 S0 + 10 S1 + 5 S2 + 18 S3 + 9 S4 <= 20
Bounds
0 <= S0
0 <= S1
0 <= S2
0 <= S3
0 <= S4
Generals
S0
S1
S2
S3
S4
End
